<?xml version = "1.0" encoding="UTF-8" standalone="yes"?>
<CPLEXSolution version="1.2">
 <header
   problemName="/home/vanessa/Documentos/tcc-auctions/completo/completo1s.lp"
   solutionName="incumbent"
   solutionIndex="-1"
   objectiveValue="493.53682960000003"
   solutionTypeValue="3"
   solutionTypeString="primal"
   solutionStatusValue="101"
   solutionStatusString="integer optimal solution"
   solutionMethodString="mip"
   primalFeasible="1"
   dualFeasible="1"
   MIPNodes="0"
   MIPIterations="154"
   writeLevel="1"/>
 <quality
   epInt="1.0000000000000001e-05"
   epRHS="9.9999999999999995e-07"
   maxIntInfeas="0"
   maxPrimalInfeas="0"
   maxX="1"
   maxSlack="12"/>
 <linearConstraints>
  <constraint name="c1" index="0" slack="0"/>
  <constraint name="c2" index="1" slack="0"/>
  <constraint name="c3" index="2" slack="0"/>
  <constraint name="c4" index="3" slack="0"/>
  <constraint name="c5" index="4" slack="0"/>
  <constraint name="c6" index="5" slack="0"/>
  <constraint name="c7" index="6" slack="0"/>
  <constraint name="c8" index="7" slack="0"/>
  <constraint name="c9" index="8" slack="0"/>
  <constraint name="c10" index="9" slack="0"/>
  <constraint name="c11" index="10" slack="0"/>
  <constraint name="c12" index="11" slack="0"/>
  <constraint name="c13" index="12" slack="0"/>
  <constraint name="c14" index="13" slack="0"/>
  <constraint name="c15" index="14" slack="0"/>
  <constraint name="c16" index="15" slack="0"/>
  <constraint name="c17" index="16" slack="0"/>
  <constraint name="c18" index="17" slack="0"/>
  <constraint name="c19" index="18" slack="0"/>
  <constraint name="c20" index="19" slack="0"/>
  <constraint name="c21" index="20" slack="0"/>
  <constraint name="c22" index="21" slack="0"/>
  <constraint name="c23" index="22" slack="0"/>
  <constraint name="c24" index="23" slack="0"/>
  <constraint name="c25" index="24" slack="0"/>
  <constraint name="c26" index="25" slack="0"/>
  <constraint name="c27" index="26" slack="0"/>
  <constraint name="c28" index="27" slack="0"/>
  <constraint name="c29" index="28" slack="0"/>
  <constraint name="c30" index="29" slack="0"/>
  <constraint name="c31" index="30" slack="0"/>
  <constraint name="c32" index="31" slack="0"/>
  <constraint name="c33" index="32" slack="0"/>
  <constraint name="c34" index="33" slack="0"/>
  <constraint name="c35" index="34" slack="0"/>
  <constraint name="c36" index="35" slack="0"/>
  <constraint name="c37" index="36" slack="0"/>
  <constraint name="c38" index="37" slack="0"/>
  <constraint name="c39" index="38" slack="0"/>
  <constraint name="c40" index="39" slack="0"/>
  <constraint name="c41" index="40" slack="0"/>
  <constraint name="c42" index="41" slack="0"/>
  <constraint name="c43" index="42" slack="0"/>
  <constraint name="c44" index="43" slack="0"/>
  <constraint name="c45" index="44" slack="0"/>
  <constraint name="c46" index="45" slack="0"/>
  <constraint name="c47" index="46" slack="0"/>
  <constraint name="c48" index="47" slack="0"/>
  <constraint name="c49" index="48" slack="0"/>
  <constraint name="c50" index="49" slack="0"/>
  <constraint name="c51" index="50" slack="0"/>
  <constraint name="c52" index="51" slack="0"/>
  <constraint name="c53" index="52" slack="0"/>
  <constraint name="c54" index="53" slack="0"/>
  <constraint name="c55" index="54" slack="0"/>
  <constraint name="c56" index="55" slack="0"/>
  <constraint name="c57" index="56" slack="0"/>
  <constraint name="c58" index="57" slack="0"/>
  <constraint name="c59" index="58" slack="0"/>
  <constraint name="c60" index="59" slack="0"/>
  <constraint name="c61" index="60" slack="0"/>
  <constraint name="c62" index="61" slack="0"/>
  <constraint name="c63" index="62" slack="0"/>
  <constraint name="c64" index="63" slack="0"/>
  <constraint name="c65" index="64" slack="0"/>
  <constraint name="c66" index="65" slack="0"/>
  <constraint name="c67" index="66" slack="0"/>
  <constraint name="c68" index="67" slack="0"/>
  <constraint name="c69" index="68" slack="0"/>
  <constraint name="c70" index="69" slack="0"/>
  <constraint name="c71" index="70" slack="0"/>
  <constraint name="c72" index="71" slack="0"/>
  <constraint name="c73" index="72" slack="0"/>
  <constraint name="c74" index="73" slack="0"/>
  <constraint name="c75" index="74" slack="0"/>
  <constraint name="c76" index="75" slack="0"/>
  <constraint name="c77" index="76" slack="0"/>
  <constraint name="c78" index="77" slack="0"/>
  <constraint name="c79" index="78" slack="0"/>
  <constraint name="c80" index="79" slack="0"/>
  <constraint name="c81" index="80" slack="0"/>
  <constraint name="c82" index="81" slack="0"/>
  <constraint name="c83" index="82" slack="0"/>
  <constraint name="c84" index="83" slack="0"/>
  <constraint name="c85" index="84" slack="0"/>
  <constraint name="c86" index="85" slack="0"/>
  <constraint name="c87" index="86" slack="0"/>
  <constraint name="c88" index="87" slack="0"/>
  <constraint name="c89" index="88" slack="0"/>
  <constraint name="c90" index="89" slack="0"/>
  <constraint name="c91" index="90" slack="0"/>
  <constraint name="c92" index="91" slack="-1"/>
  <constraint name="c93" index="92" slack="-3"/>
  <constraint name="c94" index="93" slack="-2"/>
  <constraint name="c95" index="94" slack="-1"/>
  <constraint name="c96" index="95" slack="-2"/>
  <constraint name="c97" index="96" slack="-2"/>
  <constraint name="c98" index="97" slack="-4"/>
  <constraint name="c99" index="98" slack="-2"/>
  <constraint name="c100" index="99" slack="-1"/>
  <constraint name="c101" index="100" slack="-1"/>
  <constraint name="c102" index="101" slack="-2"/>
  <constraint name="c103" index="102" slack="-2"/>
  <constraint name="c104" index="103" slack="-3"/>
  <constraint name="c105" index="104" slack="-2"/>
  <constraint name="c106" index="105" slack="-2"/>
  <constraint name="c107" index="106" slack="-1"/>
  <constraint name="c108" index="107" slack="-3"/>
  <constraint name="c109" index="108" slack="-4"/>
  <constraint name="c110" index="109" slack="-2"/>
  <constraint name="c111" index="110" slack="-4"/>
  <constraint name="c112" index="111" slack="-2"/>
  <constraint name="c113" index="112" slack="-2"/>
  <constraint name="c114" index="113" slack="-4"/>
  <constraint name="c115" index="114" slack="-2"/>
  <constraint name="c116" index="115" slack="-3"/>
  <constraint name="c117" index="116" slack="-3"/>
  <constraint name="c118" index="117" slack="0"/>
  <constraint name="c119" index="118" slack="-12"/>
  <constraint name="c120" index="119" slack="-2"/>
  <constraint name="c121" index="120" slack="-4"/>
  <constraint name="c122" index="121" slack="-7"/>
  <constraint name="c123" index="122" slack="-12"/>
  <constraint name="c124" index="123" slack="-11"/>
  <constraint name="c125" index="124" slack="-2"/>
  <constraint name="c126" index="125" slack="0"/>
  <constraint name="c127" index="126" slack="-2"/>
  <constraint name="c128" index="127" slack="-10"/>
  <constraint name="c129" index="128" slack="-2"/>
  <constraint name="c130" index="129" slack="-9"/>
  <constraint name="c131" index="130" slack="-3"/>
  <constraint name="c132" index="131" slack="-4"/>
  <constraint name="c133" index="132" slack="-1"/>
  <constraint name="c134" index="133" slack="-6"/>
  <constraint name="c135" index="134" slack="-10"/>
  <constraint name="c136" index="135" slack="-3"/>
  <constraint name="c137" index="136" slack="-9"/>
  <constraint name="c138" index="137" slack="-2"/>
  <constraint name="c139" index="138" slack="-1"/>
  <constraint name="c140" index="139" slack="-9"/>
  <constraint name="c141" index="140" slack="-6"/>
  <constraint name="c142" index="141" slack="0"/>
  <constraint name="c143" index="142" slack="0"/>
  <constraint name="c144" index="143" slack="12"/>
  <constraint name="c145" index="144" slack="0"/>
  <constraint name="c146" index="145" slack="10"/>
  <constraint name="c147" index="146" slack="8"/>
  <constraint name="c148" index="147" slack="5"/>
  <constraint name="c149" index="148" slack="0"/>
  <constraint name="c150" index="149" slack="1"/>
  <constraint name="c151" index="150" slack="10"/>
  <constraint name="c152" index="151" slack="12"/>
  <constraint name="c153" index="152" slack="10"/>
  <constraint name="c154" index="153" slack="2"/>
  <constraint name="c155" index="154" slack="10"/>
  <constraint name="c156" index="155" slack="3"/>
  <constraint name="c157" index="156" slack="9"/>
  <constraint name="c158" index="157" slack="8"/>
  <constraint name="c159" index="158" slack="11"/>
  <constraint name="c160" index="159" slack="6"/>
  <constraint name="c161" index="160" slack="2"/>
  <constraint name="c162" index="161" slack="9"/>
  <constraint name="c163" index="162" slack="3"/>
  <constraint name="c164" index="163" slack="10"/>
  <constraint name="c165" index="164" slack="11"/>
  <constraint name="c166" index="165" slack="3"/>
  <constraint name="c167" index="166" slack="6"/>
  <constraint name="c168" index="167" slack="4"/>
  <constraint name="c169" index="168" slack="4"/>
 </linearConstraints>
 <variables>
  <variable name="P18T70" index="0" value="0"/>
  <variable name="P24T6" index="1" value="0"/>
  <variable name="P18T75" index="2" value="0"/>
  <variable name="P6T73" index="3" value="-0"/>
  <variable name="P6T76" index="4" value="-0"/>
  <variable name="P7T44" index="5" value="1"/>
  <variable name="P11T30" index="6" value="0"/>
  <variable name="P24T5" index="7" value="0"/>
  <variable name="P11T32" index="8" value="0"/>
  <variable name="P2T20" index="9" value="0"/>
  <variable name="P24T3" index="10" value="-0"/>
  <variable name="P3T75" index="11" value="1"/>
  <variable name="P18T69" index="12" value="0"/>
  <variable name="P13T63" index="13" value="1"/>
  <variable name="P5T24" index="14" value="1"/>
  <variable name="P6T79" index="15" value="0"/>
  <variable name="P10T70" index="16" value="-0"/>
  <variable name="P20T24" index="17" value="0"/>
  <variable name="P3T71" index="18" value="0"/>
  <variable name="P11T56T28" index="19" value="1"/>
  <variable name="P1T3" index="20" value="1"/>
  <variable name="P1T49" index="21" value="1"/>
  <variable name="P24T81" index="22" value="-0"/>
  <variable name="P6T83" index="23" value="0"/>
  <variable name="P6T84" index="24" value="0"/>
  <variable name="P3T69" index="25" value="0"/>
  <variable name="P17T0" index="26" value="1"/>
  <variable name="P13T73" index="27" value="0"/>
  <variable name="P3T63" index="28" value="0"/>
  <variable name="P5T35" index="29" value="0"/>
  <variable name="P20T36" index="30" value="0"/>
  <variable name="P2T17T27" index="31" value="1"/>
  <variable name="P21T84" index="32" value="1"/>
  <variable name="P23T25" index="33" value="0"/>
  <variable name="P24T75" index="34" value="-0"/>
  <variable name="P24T78" index="35" value="0"/>
  <variable name="P25T46" index="36" value="1"/>
  <variable name="P22T53" index="37" value="1"/>
  <variable name="P23T21" index="38" value="0"/>
  <variable name="P24T77" index="39" value="1"/>
  <variable name="P23T83" index="40" value="1"/>
  <variable name="P24T52" index="41" value="0"/>
  <variable name="P11T16" index="42" value="0"/>
  <variable name="P13T38" index="43" value="1"/>
  <variable name="P9T85" index="44" value="1"/>
  <variable name="P15T58" index="45" value="1"/>
  <variable name="P10T40" index="46" value="1"/>
  <variable name="P7T65" index="47" value="1"/>
  <variable name="P10T42" index="48" value="1"/>
  <variable name="P13T31" index="49" value="1"/>
  <variable name="P6T11" index="50" value="1"/>
  <variable name="P3T53" index="51" value="0"/>
  <variable name="P16T33" index="52" value="1"/>
  <variable name="P15T64" index="53" value="1"/>
  <variable name="P2T84" index="54" value="-0"/>
  <variable name="P2T83" index="55" value="0"/>
  <variable name="P2T82" index="56" value="1"/>
  <variable name="P12T71" index="57" value="1"/>
  <variable name="P20T84" index="58" value="-0"/>
  <variable name="P24T46" index="59" value="-0"/>
  <variable name="P3T0" index="60" value="0"/>
  <variable name="P20T83" index="61" value="0"/>
  <variable name="P20T82" index="62" value="0"/>
  <variable name="P23T74" index="63" value="1"/>
  <variable name="P25T13" index="64" value="1"/>
  <variable name="P14T9" index="65" value="1"/>
  <variable name="P26T81" index="66" value="1"/>
  <variable name="P13T49" index="67" value="-0"/>
  <variable name="P5T50" index="68" value="1"/>
  <variable name="P11T24" index="69" value="-0"/>
  <variable name="P21T67T29" index="70" value="1"/>
  <variable name="P4T9" index="71" value="0"/>
  <variable name="P6T21" index="72" value="1"/>
  <variable name="P14T3" index="73" value="0"/>
  <variable name="P10T50" index="74" value="0"/>
  <variable name="P3T44" index="75" value="0"/>
  <variable name="P14T2" index="76" value="1"/>
  <variable name="P10T6" index="77" value="0"/>
  <variable name="P18T68" index="78" value="1"/>
  <variable name="P10T3" index="79" value="-0"/>
  <variable name="P20T16" index="80" value="1"/>
  <variable name="P18T59" index="81" value="1"/>
  <variable name="P6T24" index="82" value="0"/>
  <variable name="P19T26" index="83" value="1"/>
  <variable name="P20T15" index="84" value="0"/>
  <variable name="P12T81" index="85" value="0"/>
  <variable name="P23T89" index="86" value="1"/>
  <variable name="P25T22" index="87" value="1"/>
  <variable name="P20T10" index="88" value="1"/>
  <variable name="P23T60" index="89" value="0"/>
  <variable name="P23T62" index="90" value="1"/>
  <variable name="P13T18" index="91" value="0"/>
  <variable name="P17T60" index="92" value="1"/>
  <variable name="P5T1T45" index="93" value="1"/>
  <variable name="P17T61" index="94" value="1"/>
  <variable name="P9T22" index="95" value="0"/>
  <variable name="P7T86" index="96" value="1"/>
  <variable name="P2T69" index="97" value="-0"/>
  <variable name="P13T13" index="98" value="0"/>
  <variable name="P11T74" index="99" value="0"/>
  <variable name="P16T89" index="100" value="0"/>
  <variable name="P6T33" index="101" value="0"/>
  <variable name="P18T35" index="102" value="0"/>
  <variable name="P18T25" index="103" value="1"/>
  <variable name="P12T51" index="104" value="1"/>
  <variable name="P20T63" index="105" value="-0"/>
  <variable name="P24T25" index="106" value="0"/>
  <variable name="P24T26" index="107" value="0"/>
  <variable name="P21T35" index="108" value="1"/>
  <variable name="P20T65" index="109" value="0"/>
  <variable name="P3T6" index="110" value="1"/>
  <variable name="P23T73" index="111" value="0"/>
  <variable name="P20T81" index="112" value="-0"/>
  <variable name="P26T61" index="113" value="0"/>
  <variable name="P19T5" index="114" value="1"/>
  <variable name="P19T0" index="115" value="0"/>
  <variable name="P6T40" index="116" value="0"/>
  <variable name="P15T5" index="117" value="0"/>
  <variable name="P11T85" index="118" value="0"/>
  <variable name="P8T69" index="119" value="1"/>
  <variable name="P11T84" index="120" value="-0"/>
  <variable name="P11T87" index="121" value="1"/>
  <variable name="P7T13" index="122" value="-0"/>
  <variable name="P17T78" index="123" value="1"/>
  <variable name="P6T44" index="124" value="-0"/>
  <variable name="P7T7" index="125" value="0"/>
  <variable name="P18T46" index="126" value="-0"/>
  <variable name="P24T39" index="127" value="1"/>
  <variable name="P20T72" index="128" value="1"/>
  <variable name="P24T38" index="129" value="0"/>
  <variable name="P20T76" index="130" value="0"/>
  <variable name="P18T90" index="131" value="1"/>
  <variable name="P8T70" index="132" value="1"/>
  <variable name="P15T18" index="133" value="1"/>
  <variable name="P2T48" index="134" value="0"/>
  <variable name="P13T79" index="135" value="1"/>
  <variable name="P7T20" index="136" value="1"/>
  <variable name="P11T52" index="137" value="1"/>
  <variable name="P14T46" index="138" value="0"/>
  <variable name="P6T57T47" index="139" value="1"/>
  <variable name="P6T53" index="140" value="-0"/>
  <variable name="P23T6" index="141" value="-0"/>
  <variable name="P19T69" index="142" value="0"/>
  <variable name="P6T55" index="143" value="0"/>
  <variable name="P13T84" index="144" value="0"/>
  <variable name="P17T35" index="145" value="0"/>
  <variable name="P20T48" index="146" value="-0"/>
  <variable name="P6T59" index="147" value="0"/>
  <variable name="P23T38" index="148" value="0"/>
  <variable name="P23T39" index="149" value="0"/>
  <variable name="P22T66" index="150" value="1"/>
  <variable name="P20T40" index="151" value="0"/>
  <variable name="P23T35" index="152" value="0"/>
  <variable name="P20T43" index="153" value="1"/>
  <variable name="P24T89" index="154" value="-0"/>
  <variable name="P23T32" index="155" value="1"/>
  <variable name="P2T7" index="156" value="1"/>
  <variable name="P2T8" index="157" value="1"/>
  <variable name="P23T51" index="158" value="0"/>
  <variable name="P2T3" index="159" value="-0"/>
  <variable name="P2T5" index="160" value="0"/>
  <variable name="P6T0" index="161" value="-0"/>
  <variable name="P19T73" index="162" value="1"/>
  <variable name="P7T31" index="163" value="0"/>
  <variable name="P6T65" index="164" value="-0"/>
  <variable name="P11T63" index="165" value="-0"/>
  <variable name="P4T41" index="166" value="1"/>
  <variable name="P3T88" index="167" value="1"/>
  <variable name="P12T30" index="168" value="1"/>
  <variable name="P7T34" index="169" value="1"/>
  <variable name="P6T68" index="170" value="0"/>
  <variable name="P14T61" index="171" value="0"/>
  <variable name="P4T48" index="172" value="1"/>
  <variable name="P18T19" index="173" value="1"/>
  <variable name="P5T19" index="174" value="0"/>
  <variable name="P26T37" index="175" value="1"/>
  <variable name="P23T48" index="176" value="0"/>
  <variable name="P24T15" index="177" value="1"/>
  <variable name="P20T55" index="178" value="1"/>
  <variable name="P26T36" index="179" value="1"/>
  <variable name="P22T76" index="180" value="1"/>
  <variable name="P1T4" index="181" value="0"/>
  <variable name="P2T4" index="182" value="-0"/>
  <variable name="P3T4" index="183" value="-0"/>
  <variable name="P4T4" index="184" value="-0"/>
  <variable name="P5T4" index="185" value="-0"/>
  <variable name="P6T4" index="186" value="-0"/>
  <variable name="P7T4" index="187" value="-0"/>
  <variable name="P8T4" index="188" value="0"/>
  <variable name="P9T4" index="189" value="1"/>
  <variable name="P10T4" index="190" value="-0"/>
  <variable name="P11T4" index="191" value="-0"/>
  <variable name="P12T4" index="192" value="0"/>
  <variable name="P13T4" index="193" value="-0"/>
  <variable name="P14T4" index="194" value="0"/>
  <variable name="P15T4" index="195" value="-0"/>
  <variable name="P16T4" index="196" value="0"/>
  <variable name="P17T4" index="197" value="-0"/>
  <variable name="P18T4" index="198" value="-0"/>
  <variable name="P19T4" index="199" value="-0"/>
  <variable name="P20T4" index="200" value="-0"/>
  <variable name="P21T4" index="201" value="0"/>
  <variable name="P22T4" index="202" value="0"/>
  <variable name="P23T4" index="203" value="-0"/>
  <variable name="P24T4" index="204" value="-0"/>
  <variable name="P25T4" index="205" value="0"/>
  <variable name="P26T4" index="206" value="0"/>
  <variable name="P1T12" index="207" value="-0"/>
  <variable name="P2T12" index="208" value="-0"/>
  <variable name="P3T12" index="209" value="-0"/>
  <variable name="P4T12" index="210" value="-0"/>
  <variable name="P5T12" index="211" value="-0"/>
  <variable name="P6T12" index="212" value="0"/>
  <variable name="P7T12" index="213" value="-0"/>
  <variable name="P8T12" index="214" value="0"/>
  <variable name="P9T12" index="215" value="0"/>
  <variable name="P10T12" index="216" value="-0"/>
  <variable name="P11T12" index="217" value="-0"/>
  <variable name="P12T12" index="218" value="-0"/>
  <variable name="P13T12" index="219" value="-0"/>
  <variable name="P14T12" index="220" value="0"/>
  <variable name="P15T12" index="221" value="-0"/>
  <variable name="P16T12" index="222" value="1"/>
  <variable name="P17T12" index="223" value="-0"/>
  <variable name="P18T12" index="224" value="-0"/>
  <variable name="P19T12" index="225" value="-0"/>
  <variable name="P20T12" index="226" value="-0"/>
  <variable name="P21T12" index="227" value="0"/>
  <variable name="P22T12" index="228" value="-0"/>
  <variable name="P23T12" index="229" value="-0"/>
  <variable name="P24T12" index="230" value="-0"/>
  <variable name="P25T12" index="231" value="0"/>
  <variable name="P26T12" index="232" value="0"/>
  <variable name="P1T14" index="233" value="0"/>
  <variable name="P2T14" index="234" value="-0"/>
  <variable name="P3T14" index="235" value="-0"/>
  <variable name="P4T14" index="236" value="-0"/>
  <variable name="P5T14" index="237" value="-0"/>
  <variable name="P6T14" index="238" value="-0"/>
  <variable name="P7T14" index="239" value="-0"/>
  <variable name="P8T14" index="240" value="0"/>
  <variable name="P9T14" index="241" value="0"/>
  <variable name="P10T14" index="242" value="-0"/>
  <variable name="P11T14" index="243" value="-0"/>
  <variable name="P12T14" index="244" value="0"/>
  <variable name="P13T14" index="245" value="-0"/>
  <variable name="P14T14" index="246" value="0"/>
  <variable name="P15T14" index="247" value="-0"/>
  <variable name="P16T14" index="248" value="0"/>
  <variable name="P17T14" index="249" value="-0"/>
  <variable name="P18T14" index="250" value="-0"/>
  <variable name="P19T14" index="251" value="-0"/>
  <variable name="P20T14" index="252" value="-0"/>
  <variable name="P21T14" index="253" value="0"/>
  <variable name="P22T14" index="254" value="0"/>
  <variable name="P23T14" index="255" value="-0"/>
  <variable name="P24T14" index="256" value="-0"/>
  <variable name="P25T14" index="257" value="1"/>
  <variable name="P26T14" index="258" value="0"/>
  <variable name="P1T23" index="259" value="-0"/>
  <variable name="P2T23" index="260" value="-0"/>
  <variable name="P3T23" index="261" value="-0"/>
  <variable name="P4T23" index="262" value="-0"/>
  <variable name="P5T23" index="263" value="-0"/>
  <variable name="P6T23" index="264" value="0"/>
  <variable name="P7T23" index="265" value="-0"/>
  <variable name="P8T23" index="266" value="0"/>
  <variable name="P9T23" index="267" value="0"/>
  <variable name="P10T23" index="268" value="-0"/>
  <variable name="P11T23" index="269" value="-0"/>
  <variable name="P12T23" index="270" value="-0"/>
  <variable name="P13T23" index="271" value="-0"/>
  <variable name="P14T23" index="272" value="0"/>
  <variable name="P15T23" index="273" value="-0"/>
  <variable name="P16T23" index="274" value="0"/>
  <variable name="P17T23" index="275" value="-0"/>
  <variable name="P18T23" index="276" value="-0"/>
  <variable name="P19T23" index="277" value="-0"/>
  <variable name="P20T23" index="278" value="-0"/>
  <variable name="P21T23" index="279" value="0"/>
  <variable name="P22T23" index="280" value="-0"/>
  <variable name="P23T23" index="281" value="-0"/>
  <variable name="P24T23" index="282" value="-0"/>
  <variable name="P25T23" index="283" value="0"/>
  <variable name="P26T23" index="284" value="1"/>
  <variable name="P1T54" index="285" value="0"/>
  <variable name="P2T54" index="286" value="-0"/>
  <variable name="P3T54" index="287" value="-0"/>
  <variable name="P4T54" index="288" value="-0"/>
  <variable name="P5T54" index="289" value="-0"/>
  <variable name="P6T54" index="290" value="-0"/>
  <variable name="P7T54" index="291" value="-0"/>
  <variable name="P8T54" index="292" value="1"/>
  <variable name="P9T54" index="293" value="0"/>
  <variable name="P10T54" index="294" value="-0"/>
  <variable name="P11T54" index="295" value="-0"/>
  <variable name="P12T54" index="296" value="0"/>
  <variable name="P13T54" index="297" value="-0"/>
  <variable name="P14T54" index="298" value="0"/>
  <variable name="P15T54" index="299" value="-0"/>
  <variable name="P16T54" index="300" value="0"/>
  <variable name="P17T54" index="301" value="-0"/>
  <variable name="P18T54" index="302" value="-0"/>
  <variable name="P19T54" index="303" value="-0"/>
  <variable name="P20T54" index="304" value="-0"/>
  <variable name="P21T54" index="305" value="0"/>
  <variable name="P22T54" index="306" value="0"/>
  <variable name="P23T54" index="307" value="-0"/>
  <variable name="P24T54" index="308" value="-0"/>
  <variable name="P25T54" index="309" value="0"/>
  <variable name="P26T54" index="310" value="0"/>
  <variable name="P1T80" index="311" value="0"/>
  <variable name="P2T80" index="312" value="-0"/>
  <variable name="P3T80" index="313" value="-0"/>
  <variable name="P4T80" index="314" value="-0"/>
  <variable name="P5T80" index="315" value="-0"/>
  <variable name="P6T80" index="316" value="-0"/>
  <variable name="P7T80" index="317" value="-0"/>
  <variable name="P8T80" index="318" value="0"/>
  <variable name="P9T80" index="319" value="0"/>
  <variable name="P10T80" index="320" value="-0"/>
  <variable name="P11T80" index="321" value="-0"/>
  <variable name="P12T80" index="322" value="0"/>
  <variable name="P13T80" index="323" value="-0"/>
  <variable name="P14T80" index="324" value="1"/>
  <variable name="P15T80" index="325" value="-0"/>
  <variable name="P16T80" index="326" value="0"/>
  <variable name="P17T80" index="327" value="-0"/>
  <variable name="P18T80" index="328" value="-0"/>
  <variable name="P19T80" index="329" value="-0"/>
  <variable name="P20T80" index="330" value="-0"/>
  <variable name="P21T80" index="331" value="0"/>
  <variable name="P22T80" index="332" value="0"/>
  <variable name="P23T80" index="333" value="-0"/>
  <variable name="P24T80" index="334" value="-0"/>
  <variable name="P25T80" index="335" value="0"/>
  <variable name="P26T80;" index="336" value="0"/>
  <variable name="P26T80" index="337" value="0"/>
 </variables>
</CPLEXSolution>
